NAME 
OBJSENSE MAX
ROWS
 N  OBJ
 L  packing[0]
 L  packing[1]
 L  packing[2]
 L  packing[3]
 L  packing[4]
 L  packing[5]
 L  packing[6]
 L  packing[7]
 L  packing[8]
 L  packing[9]
 L  packing[10]
 L  packing[11]
 L  packing[12]
 L  packing[13]
 L  packing[14]
 L  packing[15]
 L  packing[16]
 L  packing[17]
 L  packing[18]
 L  packing[19]
 L  packing[20]
 L  packing[21]
 L  packing[22]
 L  packing[23]
 L  packing[24]
 L  packing[25]
 L  packing[26]
 L  packing[27]
 L  packing[28]
 L  packing[29]
 L  packing[30]
 L  packing[31]
 L  packing[32]
 L  packing[33]
 L  packing[34]
 L  packing[35]
 L  packing[36]
 L  packing[37]
 L  packing[38]
 L  packing[39]
 L  packing[40]
 L  packing[41]
 L  packing[42]
 L  packing[43]
 L  packing[44]
 L  packing[45]
 L  packing[46]
 L  packing[47]
 L  packing[48]
 L  packing[49]
 L  R55     
COLUMNS
    MARKER    'MARKER'                 'INTORG'
    x[1]      OBJ       86
    x[1]      packing[0]  141
    x[1]      packing[1]  37
    x[1]      packing[2]  195
    x[1]      packing[3]  79
    x[1]      packing[4]  81
    x[1]      packing[7]  36
    x[1]      packing[9]  95
    x[1]      packing[10]  63
    x[1]      packing[11]  146
    x[1]      packing[12]  21
    x[1]      packing[14]  159
    x[1]      packing[15]  118
    x[1]      packing[16]  101
    x[1]      packing[17]  192
    x[1]      packing[18]  69
    x[1]      packing[19]  22
    x[1]      packing[20]  137
    x[1]      packing[21]  49
    x[1]      packing[22]  115
    x[1]      packing[23]  24
    x[1]      packing[25]  152
    x[1]      packing[26]  7
    x[1]      packing[28]  5
    x[1]      packing[29]  38
    x[1]      packing[30]  189
    x[1]      packing[31]  146
    x[1]      packing[32]  24
    x[1]      packing[33]  89
    x[1]      packing[34]  134
    x[1]      packing[35]  156
    x[1]      packing[37]  152
    x[1]      packing[38]  42
    x[1]      packing[39]  160
    x[1]      packing[41]  185
    x[1]      packing[42]  188
    x[1]      packing[45]  124
    x[1]      packing[46]  117
    x[1]      packing[47]  109
    x[1]      packing[48]  145
    x[1]      packing[49]  17
    x[2]      OBJ       199
    x[2]      packing[2]  194
    x[2]      packing[4]  190
    x[2]      packing[5]  44
    x[2]      packing[7]  172
    x[2]      packing[8]  33
    x[2]      packing[12]  126
    x[2]      packing[13]  126
    x[2]      packing[14]  53
    x[2]      packing[16]  91
    x[2]      packing[17]  56
    x[2]      packing[18]  134
    x[2]      packing[19]  94
    x[2]      packing[20]  176
    x[2]      packing[21]  107
    x[2]      packing[22]  7
    x[2]      packing[23]  18
    x[2]      packing[24]  8
    x[2]      packing[25]  18
    x[2]      packing[27]  114
    x[2]      packing[29]  46
    x[2]      packing[30]  29
    x[2]      packing[31]  91
    x[2]      packing[33]  161
    x[2]      packing[34]  85
    x[2]      packing[35]  173
    x[2]      packing[36]  28
    x[2]      packing[37]  59
    x[2]      packing[39]  104
    x[2]      packing[40]  45
    x[2]      packing[41]  24
    x[2]      packing[42]  109
    x[2]      packing[44]  156
    x[2]      packing[45]  24
    x[2]      packing[46]  92
    x[2]      packing[47]  95
    x[2]      packing[49]  64
    x[2]      R55       1
    x[3]      OBJ       83
    x[3]      packing[1]  85
    x[3]      packing[2]  170
    x[3]      packing[3]  89
    x[3]      packing[4]  161
    x[3]      packing[5]  156
    x[3]      packing[6]  144
    x[3]      packing[7]  170
    x[3]      packing[8]  154
    x[3]      packing[10]  156
    x[3]      packing[12]  182
    x[3]      packing[13]  66
    x[3]      packing[14]  18
    x[3]      packing[17]  197
    x[3]      packing[19]  15
    x[3]      packing[20]  74
    x[3]      packing[21]  154
    x[3]      packing[22]  87
    x[3]      packing[23]  179
    x[3]      packing[24]  171
    x[3]      packing[25]  122
    x[3]      packing[26]  113
    x[3]      packing[27]  97
    x[3]      packing[28]  182
    x[3]      packing[29]  79
    x[3]      packing[30]  186
    x[3]      packing[31]  187
    x[3]      packing[32]  188
    x[3]      packing[34]  52
    x[3]      packing[35]  26
    x[3]      packing[36]  53
    x[3]      packing[37]  108
    x[3]      packing[38]  51
    x[3]      packing[39]  84
    x[3]      packing[41]  103
    x[3]      packing[42]  117
    x[3]      packing[43]  105
    x[3]      packing[44]  36
    x[3]      packing[45]  55
    x[3]      packing[46]  135
    x[3]      packing[47]  67
    x[4]      OBJ       200
    x[4]      packing[0]  187
    x[4]      packing[2]  176
    x[4]      packing[3]  26
    x[4]      packing[4]  28
    x[4]      packing[5]  34
    x[4]      packing[6]  197
    x[4]      packing[7]  104
    x[4]      packing[8]  45
    x[4]      packing[9]  59
    x[4]      packing[10]  117
    x[4]      packing[11]  143
    x[4]      packing[13]  113
    x[4]      packing[14]  159
    x[4]      packing[15]  180
    x[4]      packing[17]  7
    x[4]      packing[19]  3
    x[4]      packing[21]  33
    x[4]      packing[22]  39
    x[4]      packing[23]  155
    x[4]      packing[24]  121
    x[4]      packing[25]  92
    x[4]      packing[26]  16
    x[4]      packing[31]  6
    x[4]      packing[33]  83
    x[4]      packing[34]  193
    x[4]      packing[35]  170
    x[4]      packing[37]  64
    x[4]      packing[39]  148
    x[4]      packing[41]  41
    x[4]      packing[42]  77
    x[4]      packing[45]  64
    x[4]      packing[46]  26
    x[4]      packing[47]  137
    x[4]      packing[48]  188
    x[4]      packing[49]  3
    x[5]      OBJ       175
    x[5]      packing[0]  92
    x[5]      packing[1]  121
    x[5]      packing[2]  135
    x[5]      packing[3]  84
    x[5]      packing[4]  78
    x[5]      packing[5]  189
    x[5]      packing[7]  192
    x[5]      packing[8]  181
    x[5]      packing[10]  80
    x[5]      packing[11]  139
    x[5]      packing[12]  107
    x[5]      packing[14]  170
    x[5]      packing[16]  54
    x[5]      packing[17]  80
    x[5]      packing[18]  70
    x[5]      packing[19]  148
    x[5]      packing[20]  162
    x[5]      packing[21]  67
    x[5]      packing[22]  3
    x[5]      packing[23]  79
    x[5]      packing[25]  111
    x[5]      packing[26]  92
    x[5]      packing[27]  57
    x[5]      packing[28]  139
    x[5]      packing[29]  36
    x[5]      packing[30]  120
    x[5]      packing[31]  54
    x[5]      packing[32]  180
    x[5]      packing[33]  142
    x[5]      packing[34]  108
    x[5]      packing[35]  145
    x[5]      packing[36]  15
    x[5]      packing[38]  49
    x[5]      packing[40]  188
    x[5]      packing[43]  23
    x[5]      packing[45]  189
    x[5]      packing[46]  35
    x[5]      packing[47]  77
    x[5]      packing[48]  54
    x[5]      packing[49]  34
    x[6]      OBJ       148
    x[6]      packing[1]  75
    x[6]      packing[2]  87
    x[6]      packing[3]  191
    x[6]      packing[4]  68
    x[6]      packing[5]  185
    x[6]      packing[9]  62
    x[6]      packing[10]  37
    x[6]      packing[12]  176
    x[6]      packing[13]  48
    x[6]      packing[15]  6
    x[6]      packing[16]  26
    x[6]      packing[17]  158
    x[6]      packing[20]  10
    x[6]      packing[21]  191
    x[6]      packing[22]  118
    x[6]      packing[26]  153
    x[6]      packing[28]  109
    x[6]      packing[31]  10
    x[6]      packing[33]  195
    x[6]      packing[34]  61
    x[6]      packing[36]  145
    x[6]      packing[38]  15
    x[6]      packing[40]  34
    x[6]      packing[41]  18
    x[6]      packing[42]  97
    x[6]      packing[43]  86
    x[6]      packing[44]  120
    x[6]      packing[45]  59
    x[6]      packing[46]  171
    x[6]      packing[47]  181
    x[6]      packing[48]  112
    x[6]      R55       1
    x[7]      OBJ       194
    x[7]      packing[0]  181
    x[7]      packing[1]  24
    x[7]      packing[2]  85
    x[7]      packing[4]  52
    x[7]      packing[5]  78
    x[7]      packing[6]  162
    x[7]      packing[7]  134
    x[7]      packing[8]  65
    x[7]      packing[10]  179
    x[7]      packing[11]  57
    x[7]      packing[13]  97
    x[7]      packing[15]  65
    x[7]      packing[16]  32
    x[7]      packing[17]  1
    x[7]      packing[18]  134
    x[7]      packing[19]  5
    x[7]      packing[21]  110
    x[7]      packing[22]  86
    x[7]      packing[24]  151
    x[7]      packing[25]  35
    x[7]      packing[26]  31
    x[7]      packing[28]  148
    x[7]      packing[29]  140
    x[7]      packing[30]  54
    x[7]      packing[31]  195
    x[7]      packing[32]  123
    x[7]      packing[33]  87
    x[7]      packing[38]  74
    x[7]      packing[39]  168
    x[7]      packing[40]  155
    x[7]      packing[41]  85
    x[7]      packing[43]  187
    x[7]      packing[44]  24
    x[7]      packing[46]  189
    x[7]      packing[47]  6
    x[7]      packing[48]  26
    x[7]      packing[49]  129
    x[7]      R55       1
    x[8]      OBJ       162
    x[8]      packing[0]  70
    x[8]      packing[1]  176
    x[8]      packing[2]  138
    x[8]      packing[3]  64
    x[8]      packing[4]  149
    x[8]      packing[5]  174
    x[8]      packing[8]  4
    x[8]      packing[10]  73
    x[8]      packing[11]  101
    x[8]      packing[12]  144
    x[8]      packing[13]  87
    x[8]      packing[14]  160
    x[8]      packing[16]  43
    x[8]      packing[17]  97
    x[8]      packing[18]  93
    x[8]      packing[20]  137
    x[8]      packing[21]  191
    x[8]      packing[22]  195
    x[8]      packing[23]  101
    x[8]      packing[24]  137
    x[8]      packing[26]  147
    x[8]      packing[27]  139
    x[8]      packing[28]  154
    x[8]      packing[29]  148
    x[8]      packing[30]  110
    x[8]      packing[31]  108
    x[8]      packing[32]  93
    x[8]      packing[33]  10
    x[8]      packing[35]  110
    x[8]      packing[37]  112
    x[8]      packing[38]  97
    x[8]      packing[39]  33
    x[8]      packing[40]  171
    x[8]      packing[41]  169
    x[8]      packing[42]  29
    x[8]      packing[43]  39
    x[8]      packing[44]  33
    x[8]      packing[45]  94
    x[8]      packing[48]  169
    x[8]      packing[49]  21
    x[9]      OBJ       180
    x[9]      packing[0]  4
    x[9]      packing[2]  78
    x[9]      packing[4]  132
    x[9]      packing[5]  186
    x[9]      packing[6]  138
    x[9]      packing[7]  175
    x[9]      packing[9]  16
    x[9]      packing[10]  185
    x[9]      packing[11]  47
    x[9]      packing[13]  186
    x[9]      packing[15]  183
    x[9]      packing[17]  142
    x[9]      packing[18]  1
    x[9]      packing[19]  189
    x[9]      packing[20]  176
    x[9]      packing[21]  49
    x[9]      packing[22]  37
    x[9]      packing[23]  158
    x[9]      packing[24]  152
    x[9]      packing[26]  17
    x[9]      packing[27]  21
    x[9]      packing[28]  186
    x[9]      packing[29]  21
    x[9]      packing[30]  7
    x[9]      packing[31]  177
    x[9]      packing[32]  137
    x[9]      packing[33]  123
    x[9]      packing[36]  41
    x[9]      packing[37]  30
    x[9]      packing[39]  46
    x[9]      packing[40]  102
    x[9]      packing[41]  195
    x[9]      packing[42]  16
    x[9]      packing[43]  123
    x[9]      packing[44]  180
    x[9]      packing[45]  103
    x[9]      packing[46]  39
    x[9]      packing[47]  171
    x[9]      packing[49]  192
    x[9]      R55       1
    x[10]     OBJ       163
    x[10]     packing[0]  133
    x[10]     packing[2]  59
    x[10]     packing[3]  3
    x[10]     packing[5]  161
    x[10]     packing[7]  46
    x[10]     packing[9]  67
    x[10]     packing[10]  155
    x[10]     packing[11]  175
    x[10]     packing[12]  101
    x[10]     packing[13]  164
    x[10]     packing[14]  103
    x[10]     packing[15]  163
    x[10]     packing[16]  59
    x[10]     packing[17]  21
    x[10]     packing[18]  129
    x[10]     packing[19]  198
    x[10]     packing[20]  28
    x[10]     packing[22]  33
    x[10]     packing[23]  138
    x[10]     packing[24]  25
    x[10]     packing[26]  126
    x[10]     packing[28]  51
    x[10]     packing[29]  126
    x[10]     packing[30]  179
    x[10]     packing[31]  194
    x[10]     packing[32]  111
    x[10]     packing[33]  119
    x[10]     packing[34]  83
    x[10]     packing[35]  93
    x[10]     packing[36]  23
    x[10]     packing[37]  111
    x[10]     packing[38]  25
    x[10]     packing[40]  107
    x[10]     packing[41]  52
    x[10]     packing[45]  174
    x[10]     packing[46]  107
    x[10]     packing[48]  62
    x[10]     packing[49]  11
    x[11]     OBJ       2
    x[11]     packing[0]  20
    x[11]     packing[1]  153
    x[11]     packing[2]  159
    x[11]     packing[3]  158
    x[11]     packing[4]  151
    x[11]     packing[7]  147
    x[11]     packing[8]  120
    x[11]     packing[10]  29
    x[11]     packing[11]  77
    x[11]     packing[13]  128
    x[11]     packing[18]  116
    x[11]     packing[19]  71
    x[11]     packing[21]  88
    x[11]     packing[22]  87
    x[11]     packing[23]  15
    x[11]     packing[24]  98
    x[11]     packing[26]  30
    x[11]     packing[27]  193
    x[11]     packing[29]  38
    x[11]     packing[32]  118
    x[11]     packing[33]  5
    x[11]     packing[34]  168
    x[11]     packing[36]  141
    x[11]     packing[37]  198
    x[11]     packing[38]  74
    x[11]     packing[40]  72
    x[11]     packing[41]  91
    x[11]     packing[42]  45
    x[11]     packing[44]  173
    x[11]     packing[46]  23
    x[11]     packing[47]  96
    x[12]     OBJ       3
    x[12]     packing[1]  126
    x[12]     packing[4]  71
    x[12]     packing[5]  130
    x[12]     packing[7]  139
    x[12]     packing[8]  132
    x[12]     packing[9]  112
    x[12]     packing[10]  107
    x[12]     packing[11]  98
    x[12]     packing[12]  151
    x[12]     packing[13]  111
    x[12]     packing[15]  175
    x[12]     packing[16]  160
    x[12]     packing[18]  168
    x[12]     packing[20]  147
    x[12]     packing[21]  109
    x[12]     packing[23]  194
    x[12]     packing[24]  142
    x[12]     packing[26]  5
    x[12]     packing[27]  161
    x[12]     packing[32]  1
    x[12]     packing[33]  167
    x[12]     packing[36]  165
    x[12]     packing[38]  141
    x[12]     packing[39]  102
    x[12]     packing[41]  88
    x[12]     packing[42]  150
    x[12]     packing[43]  109
    x[12]     packing[44]  40
    x[12]     packing[45]  141
    x[12]     packing[46]  178
    x[12]     packing[47]  62
    x[12]     packing[48]  30
    x[12]     packing[49]  74
    x[13]     OBJ       171
    x[13]     packing[1]  28
    x[13]     packing[2]  91
    x[13]     packing[3]  7
    x[13]     packing[8]  133
    x[13]     packing[9]  167
    x[13]     packing[11]  168
    x[13]     packing[12]  6
    x[13]     packing[13]  115
    x[13]     packing[14]  193
    x[13]     packing[15]  186
    x[13]     packing[16]  45
    x[13]     packing[17]  35
    x[13]     packing[18]  130
    x[13]     packing[19]  34
    x[13]     packing[20]  152
    x[13]     packing[21]  185
    x[13]     packing[22]  185
    x[13]     packing[23]  136
    x[13]     packing[24]  88
    x[13]     packing[25]  196
    x[13]     packing[26]  129
    x[13]     packing[27]  193
    x[13]     packing[28]  121
    x[13]     packing[30]  93
    x[13]     packing[31]  142
    x[13]     packing[32]  136
    x[13]     packing[33]  71
    x[13]     packing[35]  178
    x[13]     packing[36]  138
    x[13]     packing[38]  74
    x[13]     packing[39]  192
    x[13]     packing[40]  47
    x[13]     packing[41]  144
    x[13]     packing[42]  51
    x[13]     packing[45]  102
    x[13]     packing[46]  165
    x[13]     packing[47]  145
    x[13]     packing[48]  153
    x[13]     packing[49]  36
    x[14]     OBJ       188
    x[14]     packing[1]  165
    x[14]     packing[2]  145
    x[14]     packing[3]  115
    x[14]     packing[4]  140
    x[14]     packing[5]  173
    x[14]     packing[6]  38
    x[14]     packing[8]  70
    x[14]     packing[10]  32
    x[14]     packing[11]  181
    x[14]     packing[12]  12
    x[14]     packing[13]  164
    x[14]     packing[14]  57
    x[14]     packing[16]  13
    x[14]     packing[17]  80
    x[14]     packing[18]  164
    x[14]     packing[19]  87
    x[14]     packing[20]  124
    x[14]     packing[21]  24
    x[14]     packing[22]  162
    x[14]     packing[23]  16
    x[14]     packing[26]  73
    x[14]     packing[27]  156
    x[14]     packing[28]  191
    x[14]     packing[29]  141
    x[14]     packing[30]  49
    x[14]     packing[31]  174
    x[14]     packing[33]  45
    x[14]     packing[34]  34
    x[14]     packing[35]  64
    x[14]     packing[36]  106
    x[14]     packing[37]  106
    x[14]     packing[39]  90
    x[14]     packing[41]  69
    x[14]     packing[42]  10
    x[14]     packing[44]  48
    x[14]     packing[45]  9
    x[14]     packing[46]  44
    x[14]     packing[48]  122
    x[14]     R55       1
    x[15]     OBJ       21
    x[15]     packing[0]  147
    x[15]     packing[1]  140
    x[15]     packing[3]  149
    x[15]     packing[4]  181
    x[15]     packing[5]  47
    x[15]     packing[6]  119
    x[15]     packing[7]  96
    x[15]     packing[8]  138
    x[15]     packing[9]  166
    x[15]     packing[10]  129
    x[15]     packing[11]  58
    x[15]     packing[12]  7
    x[15]     packing[13]  47
    x[15]     packing[14]  182
    x[15]     packing[15]  139
    x[15]     packing[16]  50
    x[15]     packing[17]  126
    x[15]     packing[18]  196
    x[15]     packing[21]  74
    x[15]     packing[22]  47
    x[15]     packing[24]  19
    x[15]     packing[26]  13
    x[15]     packing[27]  103
    x[15]     packing[28]  179
    x[15]     packing[29]  112
    x[15]     packing[30]  80
    x[15]     packing[31]  176
    x[15]     packing[33]  152
    x[15]     packing[34]  153
    x[15]     packing[35]  186
    x[15]     packing[36]  143
    x[15]     packing[37]  119
    x[15]     packing[39]  39
    x[15]     packing[40]  168
    x[15]     packing[41]  183
    x[15]     packing[42]  85
    x[15]     packing[43]  143
    x[15]     packing[45]  81
    x[15]     packing[46]  35
    x[15]     packing[47]  140
    x[15]     packing[48]  45
    x[15]     packing[49]  11
    x[16]     OBJ       58
    x[16]     packing[0]  38
    x[16]     packing[1]  10
    x[16]     packing[2]  43
    x[16]     packing[5]  49
    x[16]     packing[7]  38
    x[16]     packing[8]  182
    x[16]     packing[9]  159
    x[16]     packing[11]  10
    x[16]     packing[12]  5
    x[16]     packing[13]  31
    x[16]     packing[14]  99
    x[16]     packing[15]  184
    x[16]     packing[16]  47
    x[16]     packing[17]  146
    x[16]     packing[18]  124
    x[16]     packing[19]  15
    x[16]     packing[20]  124
    x[16]     packing[21]  195
    x[16]     packing[22]  35
    x[16]     packing[23]  14
    x[16]     packing[24]  60
    x[16]     packing[28]  174
    x[16]     packing[30]  126
    x[16]     packing[34]  74
    x[16]     packing[35]  198
    x[16]     packing[36]  179
    x[16]     packing[37]  114
    x[16]     packing[38]  91
    x[16]     packing[39]  104
    x[16]     packing[40]  5
    x[16]     packing[41]  22
    x[16]     packing[43]  128
    x[16]     packing[45]  20
    x[16]     packing[48]  180
    x[16]     packing[49]  19
    x[17]     OBJ       177
    x[17]     packing[0]  101
    x[17]     packing[1]  83
    x[17]     packing[2]  161
    x[17]     packing[3]  49
    x[17]     packing[5]  168
    x[17]     packing[7]  21
    x[17]     packing[8]  23
    x[17]     packing[9]  41
    x[17]     packing[12]  195
    x[17]     packing[14]  37
    x[17]     packing[16]  57
    x[17]     packing[19]  184
    x[17]     packing[20]  144
    x[17]     packing[21]  163
    x[17]     packing[22]  7
    x[17]     packing[23]  29
    x[17]     packing[24]  25
    x[17]     packing[25]  16
    x[17]     packing[26]  117
    x[17]     packing[28]  87
    x[17]     packing[30]  92
    x[17]     packing[31]  176
    x[17]     packing[36]  36
    x[17]     packing[37]  136
    x[17]     packing[38]  2
    x[17]     packing[39]  193
    x[17]     packing[40]  192
    x[17]     packing[41]  74
    x[17]     packing[42]  86
    x[17]     packing[44]  33
    x[17]     packing[45]  191
    x[17]     packing[46]  156
    x[17]     packing[47]  155
    x[17]     packing[48]  48
    x[18]     OBJ       12
    x[18]     packing[0]  13
    x[18]     packing[1]  72
    x[18]     packing[2]  1
    x[18]     packing[6]  5
    x[18]     packing[7]  115
    x[18]     packing[8]  114
    x[18]     packing[10]  192
    x[18]     packing[11]  77
    x[18]     packing[12]  164
    x[18]     packing[14]  123
    x[18]     packing[15]  194
    x[18]     packing[17]  103
    x[18]     packing[18]  25
    x[18]     packing[19]  101
    x[18]     packing[20]  80
    x[18]     packing[21]  81
    x[18]     packing[24]  142
    x[18]     packing[25]  112
    x[18]     packing[26]  83
    x[18]     packing[27]  161
    x[18]     packing[28]  156
    x[18]     packing[29]  4
    x[18]     packing[30]  35
    x[18]     packing[31]  166
    x[18]     packing[34]  56
    x[18]     packing[35]  189
    x[18]     packing[36]  4
    x[18]     packing[37]  6
    x[18]     packing[38]  38
    x[18]     packing[39]  110
    x[18]     packing[40]  34
    x[18]     packing[42]  7
    x[18]     packing[43]  135
    x[18]     packing[45]  75
    x[18]     packing[46]  76
    x[18]     packing[47]  76
    x[18]     packing[49]  30
    x[19]     OBJ       79
    x[19]     packing[1]  195
    x[19]     packing[4]  91
    x[19]     packing[5]  125
    x[19]     packing[6]  94
    x[19]     packing[7]  48
    x[19]     packing[8]  34
    x[19]     packing[9]  23
    x[19]     packing[10]  128
    x[19]     packing[11]  66
    x[19]     packing[12]  75
    x[19]     packing[13]  8
    x[19]     packing[15]  16
    x[19]     packing[16]  50
    x[19]     packing[17]  22
    x[19]     packing[18]  189
    x[19]     packing[19]  111
    x[19]     packing[20]  168
    x[19]     packing[21]  8
    x[19]     packing[22]  101
    x[19]     packing[23]  171
    x[19]     packing[25]  9
    x[19]     packing[30]  74
    x[19]     packing[32]  160
    x[19]     packing[33]  192
    x[19]     packing[36]  166
    x[19]     packing[37]  115
    x[19]     packing[38]  151
    x[19]     packing[40]  5
    x[19]     packing[41]  103
    x[19]     packing[42]  10
    x[19]     packing[43]  82
    x[19]     packing[44]  191
    x[19]     packing[45]  47
    x[19]     packing[46]  48
    x[19]     packing[47]  190
    x[19]     packing[48]  85
    x[19]     packing[49]  28
    x[20]     OBJ       69
    x[20]     packing[0]  44
    x[20]     packing[1]  185
    x[20]     packing[2]  72
    x[20]     packing[3]  137
    x[20]     packing[5]  29
    x[20]     packing[6]  50
    x[20]     packing[7]  198
    x[20]     packing[8]  125
    x[20]     packing[9]  183
    x[20]     packing[10]  199
    x[20]     packing[11]  103
    x[20]     packing[12]  37
    x[20]     packing[13]  155
    x[20]     packing[14]  43
    x[20]     packing[15]  165
    x[20]     packing[16]  16
    x[20]     packing[17]  37
    x[20]     packing[18]  9
    x[20]     packing[19]  15
    x[20]     packing[20]  105
    x[20]     packing[21]  78
    x[20]     packing[22]  73
    x[20]     packing[23]  100
    x[20]     packing[24]  33
    x[20]     packing[27]  9
    x[20]     packing[28]  153
    x[20]     packing[29]  46
    x[20]     packing[30]  32
    x[20]     packing[31]  91
    x[20]     packing[32]  21
    x[20]     packing[33]  88
    x[20]     packing[35]  102
    x[20]     packing[36]  90
    x[20]     packing[38]  108
    x[20]     packing[40]  122
    x[20]     packing[41]  111
    x[20]     packing[42]  155
    x[20]     packing[43]  127
    x[20]     packing[45]  3
    x[20]     packing[46]  186
    x[20]     packing[47]  109
    x[20]     packing[48]  49
    x[20]     packing[49]  199
    MARKER    'MARKER'                 'INTEND'
RHS
    RHS1      packing[0]  586
    RHS1      packing[1]  838
    RHS1      packing[2]  995
    RHS1      packing[3]  576
    RHS1      packing[4]  787
    RHS1      packing[5]  964
    RHS1      packing[6]  474
    RHS1      packing[7]  916
    RHS1      packing[8]  777
    RHS1      packing[9]  575
    RHS1      packing[10]  931
    RHS1      packing[11]  823
    RHS1      packing[12]  755
    RHS1      packing[13]  823
    RHS1      packing[14]  778
    RHS1      packing[15]  887
    RHS1      packing[16]  422
    RHS1      packing[17]  750
    RHS1      packing[18]  876
    RHS1      packing[19]  646
    RHS1      packing[20]  972
    RHS1      packing[21]  978
    RHS1      packing[22]  709
    RHS1      packing[23]  764
    RHS1      packing[24]  686
    RHS1      packing[25]  432
    RHS1      packing[26]  576
    RHS1      packing[27]  702
    RHS1      packing[28]  1018
    RHS1      packing[29]  488
    RHS1      packing[30]  728
    RHS1      packing[31]  1047
    RHS1      packing[32]  646
    RHS1      packing[33]  865
    RHS1      packing[34]  601
    RHS1      packing[35]  895
    RHS1      packing[36]  737
    RHS1      packing[37]  715
    RHS1      packing[38]  516
    RHS1      packing[39]  787
    RHS1      packing[40]  724
    RHS1      packing[41]  879
    RHS1      packing[42]  616
    RHS1      packing[43]  644
    RHS1      packing[44]  517
    RHS1      packing[45]  778
    RHS1      packing[46]  911
    RHS1      packing[47]  908
    RHS1      packing[48]  734
    RHS1      packing[49]  434
    RHS1      R55       4
BOUNDS
 BV BND1      x[1]    
 BV BND1      x[2]    
 BV BND1      x[3]    
 BV BND1      x[4]    
 BV BND1      x[5]    
 BV BND1      x[6]    
 BV BND1      x[7]    
 BV BND1      x[8]    
 BV BND1      x[9]    
 BV BND1      x[10]   
 BV BND1      x[11]   
 BV BND1      x[12]   
 BV BND1      x[13]   
 BV BND1      x[14]   
 BV BND1      x[15]   
 BV BND1      x[16]   
 BV BND1      x[17]   
 BV BND1      x[18]   
 BV BND1      x[19]   
 BV BND1      x[20]   
ENDATA
